
n_res = 4;
rcap = [66, 51, 259, 282];
rtype = [1, 1, 2, 2];
n_tasks = 50;
modes =  [{1, 2, 3}, {4, 5, 6}, {7, 8, 9}, {10, 11, 12}, {13, 14, 15}, {16, 17, 18}, {19, 20, 21}, {22, 23, 24}, {25, 26, 27}, {28, 29, 30}, {31, 32, 33}, {34, 35, 36}, {37, 38, 39}, {40, 41, 42}, {43, 44, 45}, {46, 47, 48}, {49, 50, 51}, {52, 53, 54}, {55, 56, 57}, {58, 59, 60}, {61, 62, 63}, {64, 65, 66}, {67, 68, 69}, {70, 71, 72}, {73, 74, 75}, {76, 77, 78}, {79, 80, 81}, {82, 83, 84}, {85, 86, 87}, {88, 89, 90}, {91, 92, 93}, {94, 95, 96}, {97, 98, 99}, {100, 101, 102}, {103, 104, 105}, {106, 107, 108}, {109, 110, 111}, {112, 113, 114}, {115, 116, 117}, {118, 119, 120}, {121, 122, 123}, {124, 125, 126}, {127, 128, 129}, {130, 131, 132}, {133, 134, 135}, {136, 137, 138}, {139, 140, 141}, {142, 143, 144}, {145, 146, 147}, {148, 149, 150}];
succ =  [{50, 49, 47, 46, 45, 42, 29, 28, 26, 25, 24, 21, 20, 16}, {47, 45, 43, 42, 40, 31, 28, 27, 26, 24, 22, 19}, {49, 46, 45, 43, 42, 40, 31, 27, 24, 20, 17}, {49, 27, 21, 7}, {44, 31, 21, 17, 13}, {47, 39, 21, 7}, {46, 44, 42, 37, 31, 25, 23}, {50, 45, 44, 42, 40, 39, 37, 33, 31, 30}, {49, 45, 42, 40, 39, 38, 36, 35, 32, 28}, {49, 46, 43, 39, 37, 35, 33, 32, 21}, {46, 45, 42, 37, 35, 32, 29, 27}, {47, 44, 42, 35, 27, 21}, {47, 45, 43, 42, 41, 40, 37, 23}, {48, 45, 42, 28, 24, 23}, {49, 48, 37, 23, 21}, {48, 43, 41, 39, 37, 36, 35, 33, 32}, {47, 41, 39, 38, 37, 23}, {48, 44, 42, 37, 35, 34, 33}, {48, 46, 41, 38, 34, 33}, {44, 36, 35, 34, 33}, {40, 38, 36, 34}, {39, 38, 36, 34}, {36, 35, 33}, {41, 36, 35}, {43, 38, 34}, {39, 35, 34}, {39, 33}, {37, 33}, {40, 33}, {38, 34}, {41}, {34}, {}, {}, {}, {}, {}, {}, {}, {}, {}, {}, {}, {}, {}, {}, {}, {}, {}, {}];
n_opt = 150;
dur = [2, 3, 7, 1, 9, 10, 5, 7, 10, 5, 7, 10, 3, 4, 7, 5, 8, 10, 3, 8, 10, 4, 5, 10, 4, 7, 8, 4, 8, 9, 3, 4, 6, 3, 6, 10, 4, 6, 7, 5, 9, 10, 5, 6, 7, 3, 7, 9, 3, 8, 9, 1, 3, 6, 2, 4, 6, 2, 7, 9, 2, 4, 8, 2, 5, 6, 1, 7, 9, 2, 3, 9, 3, 7, 8, 2, 3, 5, 1, 2, 3, 3, 4, 10, 2, 6, 7, 1, 5, 6, 7, 8, 9, 3, 5, 7, 1, 8, 9, 1, 7, 8, 2, 3, 4, 4, 5, 8, 2, 3, 8, 1, 2, 5, 7, 9, 10, 1, 2, 9, 6, 8, 10, 2, 8, 9, 2, 8, 10, 1, 2, 3, 2, 5, 10, 1, 5, 6, 3, 6, 9, 1, 9, 10, 2, 6, 10, 1, 5, 6];
rreq = [|4, 3, 3, 6, 5, 3, 10, 9, 9, 8, 8, 8, 10, 8, 8, 10, 9, 8, 9, 8, 7, 4, 3, 3, 10, 10, 10, 10, 9, 8, 8, 6, 4, 7, 4, 4, 8, 7, 7, 9, 6, 5, 6, 6, 5, 9, 7, 3, 5, 5, 5, 5, 5, 4, 6, 6, 6, 6, 6, 6, 3, 3, 3, 6, 5, 4, 10, 6, 2, 10, 9, 8, 6, 6, 6, 9, 8, 8, 6, 6, 6, 6, 6, 4, 5, 5, 2, 1, 1, 1, 7, 5, 4, 8, 7, 6, 9, 9, 7, 7, 6, 4, 3, 3, 3, 4, 3, 2, 10, 7, 3, 4, 3, 1, 8, 5, 4, 6, 3, 1, 7, 7, 7, 9, 9, 9, 8, 7, 6, 9, 9, 9, 4, 3, 2, 6, 5, 1, 9, 8, 6, 6, 6, 5, 4, 4, 4, 8, 6, 3
 |6, 5, 5, 6, 6, 5, 2, 2, 2, 8, 6, 4, 7, 6, 4, 7, 5, 5, 8, 6, 6, 5, 5, 5, 6, 5, 1, 3, 2, 2, 5, 3, 2, 8, 5, 4, 10, 9, 9, 8, 6, 4, 5, 5, 5, 5, 5, 5, 1, 1, 1, 3, 2, 1, 7, 6, 6, 8, 7, 7, 6, 5, 4, 9, 9, 8, 8, 6, 6, 9, 5, 5, 5, 4, 4, 7, 5, 3, 6, 4, 3, 4, 4, 4, 4, 4, 4, 10, 7, 2, 3, 3, 3, 2, 2, 1, 9, 9, 7, 6, 4, 4, 9, 6, 3, 10, 9, 9, 8, 6, 6, 7, 7, 5, 5, 4, 3, 4, 4, 1, 4, 3, 1, 2, 1, 1, 7, 5, 3, 6, 4, 3, 4, 3, 2, 6, 3, 2, 6, 5, 1, 4, 4, 4, 5, 3, 1, 6, 5, 4
 |2, 2, 2, 8, 6, 4, 1, 1, 1, 7, 7, 4, 5, 5, 1, 6, 5, 5, 5, 3, 3, 8, 8, 8, 8, 7, 6, 3, 3, 3, 6, 4, 2, 8, 5, 3, 8, 7, 4, 9, 8, 7, 4, 2, 2, 9, 8, 7, 5, 4, 3, 8, 5, 3, 10, 7, 5, 7, 4, 4, 4, 3, 3, 10, 6, 6, 6, 4, 1, 7, 6, 6, 4, 2, 2, 6, 5, 5, 6, 6, 6, 7, 5, 4, 6, 6, 6, 8, 6, 6, 2, 1, 1, 4, 2, 1, 5, 4, 3, 8, 8, 5, 5, 3, 2, 10, 7, 6, 1, 1, 1, 5, 5, 5, 7, 7, 7, 9, 6, 6, 8, 6, 1, 7, 7, 7, 2, 1, 1, 6, 6, 4, 8, 4, 3, 10, 9, 8, 8, 6, 4, 9, 8, 6, 8, 6, 2, 7, 7, 4
 |5, 5, 4, 9, 8, 8, 6, 6, 4, 7, 5, 3, 3, 2, 2, 9, 8, 6, 6, 5, 5, 4, 4, 2, 6, 6, 6, 9, 9, 9, 8, 8, 8, 4, 3, 3, 2, 2, 2, 3, 2, 2, 6, 5, 4, 8, 6, 1, 8, 6, 5, 2, 2, 2, 7, 7, 7, 6, 6, 5, 6, 6, 6, 4, 4, 4, 9, 9, 8, 6, 5, 4, 8, 6, 3, 8, 6, 5, 8, 7, 7, 5, 4, 4, 2, 1, 1, 9, 7, 7, 7, 5, 4, 9, 6, 3, 6, 6, 5, 6, 5, 5, 10, 10, 10, 8, 7, 7, 8, 8, 8, 6, 4, 4, 9, 7, 7, 6, 5, 5, 4, 3, 3, 8, 5, 2, 2, 2, 2, 9, 9, 9, 9, 9, 9, 9, 7, 6, 5, 5, 5, 5, 5, 5, 5, 4, 4, 7, 7, 4|];